RAW/CMTT/fspd-long/CMT2T.vrp_seed-4.out
782.7654755	0.146	246.712
