RAW/CMTT/fspd-long/CMT2T.vrp_seed-4.sol
Route #1: 63 23 56 41 64 42 43 1
Route #2: 7 53 14 59 19 54 8
Route #3: 17 3 44 32 9 39 40 26
Route #4: 12 72 31 55 25 50 18 24 49 16 51
Route #5: 75 4 34 46 67
Route #6: 52 27 13 57 15 5 29 45
Route #7: 2 28 22 62 73 33 6
Route #8: 68 74 21 61 69 71 60 70 20 37 36 47 48 30
Route #9: 35 11 66 65 38 10 58
Cost 782.765476